NAME: random-54-15001
TYPE: TSP
COMMENT: size=54 seed=15001
DIMENSION: 110
EDGE_WEIGHT_TYPE: EUC_2D
NODE_COORD_SECTION
+0 807 718
-0 807 718
+1 106 524
-1 409 477
+2 993 122
-2 896 388
+3 637 896
-3 740 441
+4 978 324
-4 943 318
+5 789 775
-5 464 978
+6 189 45
-6 886 855
+7 536 189
-7 312 675
+8 273 603
-8 283 452
+9 949 287
-9 277 261
+10 832 539
-10 913 589
+11 354 515
-11 903 754
+12 964 95
-12 795 751
+13 506 363
-13 985 931
+14 318 341
-14 97 427
+15 932 170
-15 181 129
+16 201 583
-16 153 841
+17 829 351
-17 681 967
+18 703 937
-18 803 165
+19 658 639
-19 744 878
+20 669 734
-20 643 932
+21 989 574
-21 637 397
+22 627 435
-22 982 158
+23 50 629
-23 803 136
+24 609 256
-24 558 687
+25 681 604
-25 595 103
+26 802 333
-26 885 132
+27 295 285
-27 452 656
+28 352 608
-28 304 41
+29 930 822
-29 481 880
+30 752 564
-30 126 550
+31 654 712
-31 470 624
+32 695 301
-32 607 58
+33 97 512
-33 578 869
+34 783 901
-34 895 353
+35 346 27
-35 464 423
+36 366 33
-36 471 1
+37 381 790
-37 852 299
+38 265 907
-38 971 190
+39 989 217
-39 630 364
+40 224 44
-40 333 714
+41 263 772
-41 361 734
+42 555 249
-42 577 999
+43 209 587
-43 142 30
+44 538 337
-44 667 937
+45 164 969
-45 574 67
+46 822 869
-46 978 687
+47 79 709
-47 501 885
+48 853 107
-48 939 236
+49 705 334
-49 949 115
+50 499 444
-50 42 297
+51 149 835
-51 524 134
+52 172 527
-52 356 144
+53 978 148
-53 429 666
+54 691 471
-54 239 583
PRECEDENCE_SECTION
+0 -0
+1 -1
+2 -2
+3 -3
+4 -4
+5 -5
+6 -6
+7 -7
+8 -8
+9 -9
+10 -10
+11 -11
+12 -12
+13 -13
+14 -14
+15 -15
+16 -16
+17 -17
+18 -18
+19 -19
+20 -20
+21 -21
+22 -22
+23 -23
+24 -24
+25 -25
+26 -26
+27 -27
+28 -28
+29 -29
+30 -30
+31 -31
+32 -32
+33 -33
+34 -34
+35 -35
+36 -36
+37 -37
+38 -38
+39 -39
+40 -40
+41 -41
+42 -42
+43 -43
+44 -44
+45 -45
+46 -46
+47 -47
+48 -48
+49 -49
+50 -50
+51 -51
+52 -52
+53 -53
+54 -54
EOF
